outputs/case_179.model.txt
internal_control_execution_confirmed = True
training_held_regularly = True
control_procedures_established = True
account_monitoring_policy_reviewed = True
other_designated_matters_established = True
audit_procedures_established = True
dedicated_personnel_assigned = True
internal_control_executed = True
customer_data_integrated = True
monitoring_records_kept = True
monitoring_policy_written = True
monitoring_policy_includes_required_elements = True
penalty = False
monitoring_execution_recorded = True
monitoring_records_retained_within_period = True
internal_control_procedures_for_data_access = True
internal_control_established = True
account_monitoring_policy_established = True
risk_assessment_report_updated = True
monitoring_policy_review_and_update_done = True
compliance_overall = True
risk_based_monitoring_policy_established = True